Route #1: 1 28 6 37 22 29 37 21 37 48 49 31 1 
Route #2: 1 13 40 10 26 40 32 40 41 1 
Route #3: 1 45 33 40 19 40 11 39 9 1 
Route #4: 1 27 20 9 14 16 38 37 30 46 5 1 
Route #5: 1 17 24 23 24 25 24 34 3 1 
Route #6: 1 7 2 24 44 43 42 24 50 4 18 1 
Route #7: 1 35 47 9 12 36 9 15 8 1 
Cost 843.0
